c created by edge2cnf
p cnf 500 3100
-1 -2 0
-1 -3 0
-1 -4 0
-1 -5 0
-2 -3 0
-2 -4 0
-2 -5 0
-3 -4 0
-3 -5 0
-4 -5 0
1 2 3 4 5 0
-6 -7 0
-6 -8 0
-6 -9 0
-6 -10 0
-7 -8 0
-7 -9 0
-7 -10 0
-8 -9 0
-8 -10 0
-9 -10 0
6 7 8 9 10 0
-11 -12 0
-11 -13 0
-11 -14 0
-11 -15 0
-12 -13 0
-12 -14 0
-12 -15 0
-13 -14 0
-13 -15 0
-14 -15 0
11 12 13 14 15 0
-16 -17 0
-16 -18 0
-16 -19 0
-16 -20 0
-17 -18 0
-17 -19 0
-17 -20 0
-18 -19 0
-18 -20 0
-19 -20 0
16 17 18 19 20 0
-21 -22 0
-21 -23 0
-21 -24 0
-21 -25 0
-22 -23 0
-22 -24 0
-22 -25 0
-23 -24 0
-23 -25 0
-24 -25 0
21 22 23 24 25 0
-26 -27 0
-26 -28 0
-26 -29 0
-26 -30 0
-27 -28 0
-27 -29 0
-27 -30 0
-28 -29 0
-28 -30 0
-29 -30 0
26 27 28 29 30 0
-31 -32 0
-31 -33 0
-31 -34 0
-31 -35 0
-32 -33 0
-32 -34 0
-32 -35 0
-33 -34 0
-33 -35 0
-34 -35 0
31 32 33 34 35 0
-36 -37 0
-36 -38 0
-36 -39 0
-36 -40 0
-37 -38 0
-37 -39 0
-37 -40 0
-38 -39 0
-38 -40 0
-39 -40 0
36 37 38 39 40 0
-41 -42 0
-41 -43 0
-41 -44 0
-41 -45 0
-42 -43 0
-42 -44 0
-42 -45 0
-43 -44 0
-43 -45 0
-44 -45 0
41 42 43 44 45 0
-46 -47 0
-46 -48 0
-46 -49 0
-46 -50 0
-47 -48 0
-47 -49 0
-47 -50 0
-48 -49 0
-48 -50 0
-49 -50 0
46 47 48 49 50 0
-51 -52 0
-51 -53 0
-51 -54 0
-51 -55 0
-52 -53 0
-52 -54 0
-52 -55 0
-53 -54 0
-53 -55 0
-54 -55 0
51 52 53 54 55 0
-56 -57 0
-56 -58 0
-56 -59 0
-56 -60 0
-57 -58 0
-57 -59 0
-57 -60 0
-58 -59 0
-58 -60 0
-59 -60 0
56 57 58 59 60 0
-61 -62 0
-61 -63 0
-61 -64 0
-61 -65 0
-62 -63 0
-62 -64 0
-62 -65 0
-63 -64 0
-63 -65 0
-64 -65 0
61 62 63 64 65 0
-66 -67 0
-66 -68 0
-66 -69 0
-66 -70 0
-67 -68 0
-67 -69 0
-67 -70 0
-68 -69 0
-68 -70 0
-69 -70 0
66 67 68 69 70 0
-71 -72 0
-71 -73 0
-71 -74 0
-71 -75 0
-72 -73 0
-72 -74 0
-72 -75 0
-73 -74 0
-73 -75 0
-74 -75 0
71 72 73 74 75 0
-76 -77 0
-76 -78 0
-76 -79 0
-76 -80 0
-77 -78 0
-77 -79 0
-77 -80 0
-78 -79 0
-78 -80 0
-79 -80 0
76 77 78 79 80 0
-81 -82 0
-81 -83 0
-81 -84 0
-81 -85 0
-82 -83 0
-82 -84 0
-82 -85 0
-83 -84 0
-83 -85 0
-84 -85 0
81 82 83 84 85 0
-86 -87 0
-86 -88 0
-86 -89 0
-86 -90 0
-87 -88 0
-87 -89 0
-87 -90 0
-88 -89 0
-88 -90 0
-89 -90 0
86 87 88 89 90 0
-91 -92 0
-91 -93 0
-91 -94 0
-91 -95 0
-92 -93 0
-92 -94 0
-92 -95 0
-93 -94 0
-93 -95 0
-94 -95 0
91 92 93 94 95 0
-96 -97 0
-96 -98 0
-96 -99 0
-96 -100 0
-97 -98 0
-97 -99 0
-97 -100 0
-98 -99 0
-98 -100 0
-99 -100 0
96 97 98 99 100 0
-101 -102 0
-101 -103 0
-101 -104 0
-101 -105 0
-102 -103 0
-102 -104 0
-102 -105 0
-103 -104 0
-103 -105 0
-104 -105 0
101 102 103 104 105 0
-106 -107 0
-106 -108 0
-106 -109 0
-106 -110 0
-107 -108 0
-107 -109 0
-107 -110 0
-108 -109 0
-108 -110 0
-109 -110 0
106 107 108 109 110 0
-111 -112 0
-111 -113 0
-111 -114 0
-111 -115 0
-112 -113 0
-112 -114 0
-112 -115 0
-113 -114 0
-113 -115 0
-114 -115 0
111 112 113 114 115 0
-116 -117 0
-116 -118 0
-116 -119 0
-116 -120 0
-117 -118 0
-117 -119 0
-117 -120 0
-118 -119 0
-118 -120 0
-119 -120 0
116 117 118 119 120 0
-121 -122 0
-121 -123 0
-121 -124 0
-121 -125 0
-122 -123 0
-122 -124 0
-122 -125 0
-123 -124 0
-123 -125 0
-124 -125 0
121 122 123 124 125 0
-126 -127 0
-126 -128 0
-126 -129 0
-126 -130 0
-127 -128 0
-127 -129 0
-127 -130 0
-128 -129 0
-128 -130 0
-129 -130 0
126 127 128 129 130 0
-131 -132 0
-131 -133 0
-131 -134 0
-131 -135 0
-132 -133 0
-132 -134 0
-132 -135 0
-133 -134 0
-133 -135 0
-134 -135 0
131 132 133 134 135 0
-136 -137 0
-136 -138 0
-136 -139 0
-136 -140 0
-137 -138 0
-137 -139 0
-137 -140 0
-138 -139 0
-138 -140 0
-139 -140 0
136 137 138 139 140 0
-141 -142 0
-141 -143 0
-141 -144 0
-141 -145 0
-142 -143 0
-142 -144 0
-142 -145 0
-143 -144 0
-143 -145 0
-144 -145 0
141 142 143 144 145 0
-146 -147 0
-146 -148 0
-146 -149 0
-146 -150 0
-147 -148 0
-147 -149 0
-147 -150 0
-148 -149 0
-148 -150 0
-149 -150 0
146 147 148 149 150 0
-151 -152 0
-151 -153 0
-151 -154 0
-151 -155 0
-152 -153 0
-152 -154 0
-152 -155 0
-153 -154 0
-153 -155 0
-154 -155 0
151 152 153 154 155 0
-156 -157 0
-156 -158 0
-156 -159 0
-156 -160 0
-157 -158 0
-157 -159 0
-157 -160 0
-158 -159 0
-158 -160 0
-159 -160 0
156 157 158 159 160 0
-161 -162 0
-161 -163 0
-161 -164 0
-161 -165 0
-162 -163 0
-162 -164 0
-162 -165 0
-163 -164 0
-163 -165 0
-164 -165 0
161 162 163 164 165 0
-166 -167 0
-166 -168 0
-166 -169 0
-166 -170 0
-167 -168 0
-167 -169 0
-167 -170 0
-168 -169 0
-168 -170 0
-169 -170 0
166 167 168 169 170 0
-171 -172 0
-171 -173 0
-171 -174 0
-171 -175 0
-172 -173 0
-172 -174 0
-172 -175 0
-173 -174 0
-173 -175 0
-174 -175 0
171 172 173 174 175 0
-176 -177 0
-176 -178 0
-176 -179 0
-176 -180 0
-177 -178 0
-177 -179 0
-177 -180 0
-178 -179 0
-178 -180 0
-179 -180 0
176 177 178 179 180 0
-181 -182 0
-181 -183 0
-181 -184 0
-181 -185 0
-182 -183 0
-182 -184 0
-182 -185 0
-183 -184 0
-183 -185 0
-184 -185 0
181 182 183 184 185 0
-186 -187 0
-186 -188 0
-186 -189 0
-186 -190 0
-187 -188 0
-187 -189 0
-187 -190 0
-188 -189 0
-188 -190 0
-189 -190 0
186 187 188 189 190 0
-191 -192 0
-191 -193 0
-191 -194 0
-191 -195 0
-192 -193 0
-192 -194 0
-192 -195 0
-193 -194 0
-193 -195 0
-194 -195 0
191 192 193 194 195 0
-196 -197 0
-196 -198 0
-196 -199 0
-196 -200 0
-197 -198 0
-197 -199 0
-197 -200 0
-198 -199 0
-198 -200 0
-199 -200 0
196 197 198 199 200 0
-201 -202 0
-201 -203 0
-201 -204 0
-201 -205 0
-202 -203 0
-202 -204 0
-202 -205 0
-203 -204 0
-203 -205 0
-204 -205 0
201 202 203 204 205 0
-206 -207 0
-206 -208 0
-206 -209 0
-206 -210 0
-207 -208 0
-207 -209 0
-207 -210 0
-208 -209 0
-208 -210 0
-209 -210 0
206 207 208 209 210 0
-211 -212 0
-211 -213 0
-211 -214 0
-211 -215 0
-212 -213 0
-212 -214 0
-212 -215 0
-213 -214 0
-213 -215 0
-214 -215 0
211 212 213 214 215 0
-216 -217 0
-216 -218 0
-216 -219 0
-216 -220 0
-217 -218 0
-217 -219 0
-217 -220 0
-218 -219 0
-218 -220 0
-219 -220 0
216 217 218 219 220 0
-221 -222 0
-221 -223 0
-221 -224 0
-221 -225 0
-222 -223 0
-222 -224 0
-222 -225 0
-223 -224 0
-223 -225 0
-224 -225 0
221 222 223 224 225 0
-226 -227 0
-226 -228 0
-226 -229 0
-226 -230 0
-227 -228 0
-227 -229 0
-227 -230 0
-228 -229 0
-228 -230 0
-229 -230 0
226 227 228 229 230 0
-231 -232 0
-231 -233 0
-231 -234 0
-231 -235 0
-232 -233 0
-232 -234 0
-232 -235 0
-233 -234 0
-233 -235 0
-234 -235 0
231 232 233 234 235 0
-236 -237 0
-236 -238 0
-236 -239 0
-236 -240 0
-237 -238 0
-237 -239 0
-237 -240 0
-238 -239 0
-238 -240 0
-239 -240 0
236 237 238 239 240 0
-241 -242 0
-241 -243 0
-241 -244 0
-241 -245 0
-242 -243 0
-242 -244 0
-242 -245 0
-243 -244 0
-243 -245 0
-244 -245 0
241 242 243 244 245 0
-246 -247 0
-246 -248 0
-246 -249 0
-246 -250 0
-247 -248 0
-247 -249 0
-247 -250 0
-248 -249 0
-248 -250 0
-249 -250 0
246 247 248 249 250 0
-251 -252 0
-251 -253 0
-251 -254 0
-251 -255 0
-252 -253 0
-252 -254 0
-252 -255 0
-253 -254 0
-253 -255 0
-254 -255 0
251 252 253 254 255 0
-256 -257 0
-256 -258 0
-256 -259 0
-256 -260 0
-257 -258 0
-257 -259 0
-257 -260 0
-258 -259 0
-258 -260 0
-259 -260 0
256 257 258 259 260 0
-261 -262 0
-261 -263 0
-261 -264 0
-261 -265 0
-262 -263 0
-262 -264 0
-262 -265 0
-263 -264 0
-263 -265 0
-264 -265 0
261 262 263 264 265 0
-266 -267 0
-266 -268 0
-266 -269 0
-266 -270 0
-267 -268 0
-267 -269 0
-267 -270 0
-268 -269 0
-268 -270 0
-269 -270 0
266 267 268 269 270 0
-271 -272 0
-271 -273 0
-271 -274 0
-271 -275 0
-272 -273 0
-272 -274 0
-272 -275 0
-273 -274 0
-273 -275 0
-274 -275 0
271 272 273 274 275 0
-276 -277 0
-276 -278 0
-276 -279 0
-276 -280 0
-277 -278 0
-277 -279 0
-277 -280 0
-278 -279 0
-278 -280 0
-279 -280 0
276 277 278 279 280 0
-281 -282 0
-281 -283 0
-281 -284 0
-281 -285 0
-282 -283 0
-282 -284 0
-282 -285 0
-283 -284 0
-283 -285 0
-284 -285 0
281 282 283 284 285 0
-286 -287 0
-286 -288 0
-286 -289 0
-286 -290 0
-287 -288 0
-287 -289 0
-287 -290 0
-288 -289 0
-288 -290 0
-289 -290 0
286 287 288 289 290 0
-291 -292 0
-291 -293 0
-291 -294 0
-291 -295 0
-292 -293 0
-292 -294 0
-292 -295 0
-293 -294 0
-293 -295 0
-294 -295 0
291 292 293 294 295 0
-296 -297 0
-296 -298 0
-296 -299 0
-296 -300 0
-297 -298 0
-297 -299 0
-297 -300 0
-298 -299 0
-298 -300 0
-299 -300 0
296 297 298 299 300 0
-301 -302 0
-301 -303 0
-301 -304 0
-301 -305 0
-302 -303 0
-302 -304 0
-302 -305 0
-303 -304 0
-303 -305 0
-304 -305 0
301 302 303 304 305 0
-306 -307 0
-306 -308 0
-306 -309 0
-306 -310 0
-307 -308 0
-307 -309 0
-307 -310 0
-308 -309 0
-308 -310 0
-309 -310 0
306 307 308 309 310 0
-311 -312 0
-311 -313 0
-311 -314 0
-311 -315 0
-312 -313 0
-312 -314 0
-312 -315 0
-313 -314 0
-313 -315 0
-314 -315 0
311 312 313 314 315 0
-316 -317 0
-316 -318 0
-316 -319 0
-316 -320 0
-317 -318 0
-317 -319 0
-317 -320 0
-318 -319 0
-318 -320 0
-319 -320 0
316 317 318 319 320 0
-321 -322 0
-321 -323 0
-321 -324 0
-321 -325 0
-322 -323 0
-322 -324 0
-322 -325 0
-323 -324 0
-323 -325 0
-324 -325 0
321 322 323 324 325 0
-326 -327 0
-326 -328 0
-326 -329 0
-326 -330 0
-327 -328 0
-327 -329 0
-327 -330 0
-328 -329 0
-328 -330 0
-329 -330 0
326 327 328 329 330 0
-331 -332 0
-331 -333 0
-331 -334 0
-331 -335 0
-332 -333 0
-332 -334 0
-332 -335 0
-333 -334 0
-333 -335 0
-334 -335 0
331 332 333 334 335 0
-336 -337 0
-336 -338 0
-336 -339 0
-336 -340 0
-337 -338 0
-337 -339 0
-337 -340 0
-338 -339 0
-338 -340 0
-339 -340 0
336 337 338 339 340 0
-341 -342 0
-341 -343 0
-341 -344 0
-341 -345 0
-342 -343 0
-342 -344 0
-342 -345 0
-343 -344 0
-343 -345 0
-344 -345 0
341 342 343 344 345 0
-346 -347 0
-346 -348 0
-346 -349 0
-346 -350 0
-347 -348 0
-347 -349 0
-347 -350 0
-348 -349 0
-348 -350 0
-349 -350 0
346 347 348 349 350 0
-351 -352 0
-351 -353 0
-351 -354 0
-351 -355 0
-352 -353 0
-352 -354 0
-352 -355 0
-353 -354 0
-353 -355 0
-354 -355 0
351 352 353 354 355 0
-356 -357 0
-356 -358 0
-356 -359 0
-356 -360 0
-357 -358 0
-357 -359 0
-357 -360 0
-358 -359 0
-358 -360 0
-359 -360 0
356 357 358 359 360 0
-361 -362 0
-361 -363 0
-361 -364 0
-361 -365 0
-362 -363 0
-362 -364 0
-362 -365 0
-363 -364 0
-363 -365 0
-364 -365 0
361 362 363 364 365 0
-366 -367 0
-366 -368 0
-366 -369 0
-366 -370 0
-367 -368 0
-367 -369 0
-367 -370 0
-368 -369 0
-368 -370 0
-369 -370 0
366 367 368 369 370 0
-371 -372 0
-371 -373 0
-371 -374 0
-371 -375 0
-372 -373 0
-372 -374 0
-372 -375 0
-373 -374 0
-373 -375 0
-374 -375 0
371 372 373 374 375 0
-376 -377 0
-376 -378 0
-376 -379 0
-376 -380 0
-377 -378 0
-377 -379 0
-377 -380 0
-378 -379 0
-378 -380 0
-379 -380 0
376 377 378 379 380 0
-381 -382 0
-381 -383 0
-381 -384 0
-381 -385 0
-382 -383 0
-382 -384 0
-382 -385 0
-383 -384 0
-383 -385 0
-384 -385 0
381 382 383 384 385 0
-386 -387 0
-386 -388 0
-386 -389 0
-386 -390 0
-387 -388 0
-387 -389 0
-387 -390 0
-388 -389 0
-388 -390 0
-389 -390 0
386 387 388 389 390 0
-391 -392 0
-391 -393 0
-391 -394 0
-391 -395 0
-392 -393 0
-392 -394 0
-392 -395 0
-393 -394 0
-393 -395 0
-394 -395 0
391 392 393 394 395 0
-396 -397 0
-396 -398 0
-396 -399 0
-396 -400 0
-397 -398 0
-397 -399 0
-397 -400 0
-398 -399 0
-398 -400 0
-399 -400 0
396 397 398 399 400 0
-401 -402 0
-401 -403 0
-401 -404 0
-401 -405 0
-402 -403 0
-402 -404 0
-402 -405 0
-403 -404 0
-403 -405 0
-404 -405 0
401 402 403 404 405 0
-406 -407 0
-406 -408 0
-406 -409 0
-406 -410 0
-407 -408 0
-407 -409 0
-407 -410 0
-408 -409 0
-408 -410 0
-409 -410 0
406 407 408 409 410 0
-411 -412 0
-411 -413 0
-411 -414 0
-411 -415 0
-412 -413 0
-412 -414 0
-412 -415 0
-413 -414 0
-413 -415 0
-414 -415 0
411 412 413 414 415 0
-416 -417 0
-416 -418 0
-416 -419 0
-416 -420 0
-417 -418 0
-417 -419 0
-417 -420 0
-418 -419 0
-418 -420 0
-419 -420 0
416 417 418 419 420 0
-421 -422 0
-421 -423 0
-421 -424 0
-421 -425 0
-422 -423 0
-422 -424 0
-422 -425 0
-423 -424 0
-423 -425 0
-424 -425 0
421 422 423 424 425 0
-426 -427 0
-426 -428 0
-426 -429 0
-426 -430 0
-427 -428 0
-427 -429 0
-427 -430 0
-428 -429 0
-428 -430 0
-429 -430 0
426 427 428 429 430 0
-431 -432 0
-431 -433 0
-431 -434 0
-431 -435 0
-432 -433 0
-432 -434 0
-432 -435 0
-433 -434 0
-433 -435 0
-434 -435 0
431 432 433 434 435 0
-436 -437 0
-436 -438 0
-436 -439 0
-436 -440 0
-437 -438 0
-437 -439 0
-437 -440 0
-438 -439 0
-438 -440 0
-439 -440 0
436 437 438 439 440 0
-441 -442 0
-441 -443 0
-441 -444 0
-441 -445 0
-442 -443 0
-442 -444 0
-442 -445 0
-443 -444 0
-443 -445 0
-444 -445 0
441 442 443 444 445 0
-446 -447 0
-446 -448 0
-446 -449 0
-446 -450 0
-447 -448 0
-447 -449 0
-447 -450 0
-448 -449 0
-448 -450 0
-449 -450 0
446 447 448 449 450 0
-451 -452 0
-451 -453 0
-451 -454 0
-451 -455 0
-452 -453 0
-452 -454 0
-452 -455 0
-453 -454 0
-453 -455 0
-454 -455 0
451 452 453 454 455 0
-456 -457 0
-456 -458 0
-456 -459 0
-456 -460 0
-457 -458 0
-457 -459 0
-457 -460 0
-458 -459 0
-458 -460 0
-459 -460 0
456 457 458 459 460 0
-461 -462 0
-461 -463 0
-461 -464 0
-461 -465 0
-462 -463 0
-462 -464 0
-462 -465 0
-463 -464 0
-463 -465 0
-464 -465 0
461 462 463 464 465 0
-466 -467 0
-466 -468 0
-466 -469 0
-466 -470 0
-467 -468 0
-467 -469 0
-467 -470 0
-468 -469 0
-468 -470 0
-469 -470 0
466 467 468 469 470 0
-471 -472 0
-471 -473 0
-471 -474 0
-471 -475 0
-472 -473 0
-472 -474 0
-472 -475 0
-473 -474 0
-473 -475 0
-474 -475 0
471 472 473 474 475 0
-476 -477 0
-476 -478 0
-476 -479 0
-476 -480 0
-477 -478 0
-477 -479 0
-477 -480 0
-478 -479 0
-478 -480 0
-479 -480 0
476 477 478 479 480 0
-481 -482 0
-481 -483 0
-481 -484 0
-481 -485 0
-482 -483 0
-482 -484 0
-482 -485 0
-483 -484 0
-483 -485 0
-484 -485 0
481 482 483 484 485 0
-486 -487 0
-486 -488 0
-486 -489 0
-486 -490 0
-487 -488 0
-487 -489 0
-487 -490 0
-488 -489 0
-488 -490 0
-489 -490 0
486 487 488 489 490 0
-491 -492 0
-491 -493 0
-491 -494 0
-491 -495 0
-492 -493 0
-492 -494 0
-492 -495 0
-493 -494 0
-493 -495 0
-494 -495 0
491 492 493 494 495 0
-496 -497 0
-496 -498 0
-496 -499 0
-496 -500 0
-497 -498 0
-497 -499 0
-497 -500 0
-498 -499 0
-498 -500 0
-499 -500 0
496 497 498 499 500 0
-16 -26 0
-17 -27 0
-18 -28 0
-19 -29 0
-20 -30 0
-31 -51 0
-32 -52 0
-33 -53 0
-34 -54 0
-35 -55 0
-36 -41 0
-37 -42 0
-38 -43 0
-39 -44 0
-40 -45 0
-36 -56 0
-37 -57 0
-38 -58 0
-39 -59 0
-40 -60 0
-61 -81 0
-62 -82 0
-63 -83 0
-64 -84 0
-65 -85 0
-81 -101 0
-82 -102 0
-83 -103 0
-84 -104 0
-85 -105 0
-101 -121 0
-102 -122 0
-103 -123 0
-104 -124 0
-105 -125 0
-131 -151 0
-132 -152 0
-133 -153 0
-134 -154 0
-135 -155 0
-146 -156 0
-147 -157 0
-148 -158 0
-149 -159 0
-150 -160 0
-191 -196 0
-192 -197 0
-193 -198 0
-194 -199 0
-195 -200 0
-206 -211 0
-207 -212 0
-208 -213 0
-209 -214 0
-210 -215 0
-211 -216 0
-212 -217 0
-213 -218 0
-214 -219 0
-215 -220 0
-236 -241 0
-237 -242 0
-238 -243 0
-239 -244 0
-240 -245 0
-236 -251 0
-237 -252 0
-238 -253 0
-239 -254 0
-240 -255 0
-241 -261 0
-242 -262 0
-243 -263 0
-244 -264 0
-245 -265 0
-276 -296 0
-277 -297 0
-278 -298 0
-279 -299 0
-280 -300 0
-291 -301 0
-292 -302 0
-293 -303 0
-294 -304 0
-295 -305 0
-296 -301 0
-297 -302 0
-298 -303 0
-299 -304 0
-300 -305 0
-306 -311 0
-307 -312 0
-308 -313 0
-309 -314 0
-310 -315 0
-311 -316 0
-312 -317 0
-313 -318 0
-314 -319 0
-315 -320 0
-316 -336 0
-317 -337 0
-318 -338 0
-319 -339 0
-320 -340 0
-336 -341 0
-337 -342 0
-338 -343 0
-339 -344 0
-340 -345 0
-351 -356 0
-352 -357 0
-353 -358 0
-354 -359 0
-355 -360 0
-371 -376 0
-372 -377 0
-373 -378 0
-374 -379 0
-375 -380 0
-381 -396 0
-382 -397 0
-383 -398 0
-384 -399 0
-385 -400 0
-401 -406 0
-402 -407 0
-403 -408 0
-404 -409 0
-405 -410 0
-441 -456 0
-442 -457 0
-443 -458 0
-444 -459 0
-445 -460 0
-451 -466 0
-452 -467 0
-453 -468 0
-454 -469 0
-455 -470 0
-451 -471 0
-452 -472 0
-453 -473 0
-454 -474 0
-455 -475 0
-456 -466 0
-457 -467 0
-458 -468 0
-459 -469 0
-460 -470 0
-476 -491 0
-477 -492 0
-478 -493 0
-479 -494 0
-480 -495 0
-6 -491 0
-7 -492 0
-8 -493 0
-9 -494 0
-10 -495 0
-1 -346 0
-2 -347 0
-3 -348 0
-4 -349 0
-5 -350 0
-1 -371 0
-2 -372 0
-3 -373 0
-4 -374 0
-5 -375 0
-1 -416 0
-2 -417 0
-3 -418 0
-4 -419 0
-5 -420 0
-1 -421 0
-2 -422 0
-3 -423 0
-4 -424 0
-5 -425 0
-1 -426 0
-2 -427 0
-3 -428 0
-4 -429 0
-5 -430 0
-6 -41 0
-7 -42 0
-8 -43 0
-9 -44 0
-10 -45 0
-6 -211 0
-7 -212 0
-8 -213 0
-9 -214 0
-10 -215 0
-6 -236 0
-7 -237 0
-8 -238 0
-9 -239 0
-10 -240 0
-11 -41 0
-12 -42 0
-13 -43 0
-14 -44 0
-15 -45 0
-11 -46 0
-12 -47 0
-13 -48 0
-14 -49 0
-15 -50 0
-11 -196 0
-12 -197 0
-13 -198 0
-14 -199 0
-15 -200 0
-11 -231 0
-12 -232 0
-13 -233 0
-14 -234 0
-15 -235 0
-11 -256 0
-12 -257 0
-13 -258 0
-14 -259 0
-15 -260 0
-11 -446 0
-12 -447 0
-13 -448 0
-14 -449 0
-15 -450 0
-11 -486 0
-12 -487 0
-13 -488 0
-14 -489 0
-15 -490 0
-16 -211 0
-17 -212 0
-18 -213 0
-19 -214 0
-20 -215 0
-16 -436 0
-17 -437 0
-18 -438 0
-19 -439 0
-20 -440 0
-21 -51 0
-22 -52 0
-23 -53 0
-24 -54 0
-25 -55 0
-21 -221 0
-22 -222 0
-23 -223 0
-24 -224 0
-25 -225 0
-21 -266 0
-22 -267 0
-23 -268 0
-24 -269 0
-25 -270 0
-21 -276 0
-22 -277 0
-23 -278 0
-24 -279 0
-25 -280 0
-21 -326 0
-22 -327 0
-23 -328 0
-24 -329 0
-25 -330 0
-26 -56 0
-27 -57 0
-28 -58 0
-29 -59 0
-30 -60 0
-26 -66 0
-27 -67 0
-28 -68 0
-29 -69 0
-30 -70 0
-26 -151 0
-27 -152 0
-28 -153 0
-29 -154 0
-30 -155 0
-26 -206 0
-27 -207 0
-28 -208 0
-29 -209 0
-30 -210 0
-26 -231 0
-27 -232 0
-28 -233 0
-29 -234 0
-30 -235 0
-26 -381 0
-27 -382 0
-28 -383 0
-29 -384 0
-30 -385 0
-26 -446 0
-27 -447 0
-28 -448 0
-29 -449 0
-30 -450 0
-26 -466 0
-27 -467 0
-28 -468 0
-29 -469 0
-30 -470 0
-31 -81 0
-32 -82 0
-33 -83 0
-34 -84 0
-35 -85 0
-31 -166 0
-32 -167 0
-33 -168 0
-34 -169 0
-35 -170 0
-31 -241 0
-32 -242 0
-33 -243 0
-34 -244 0
-35 -245 0
-31 -336 0
-32 -337 0
-33 -338 0
-34 -339 0
-35 -340 0
-31 -351 0
-32 -352 0
-33 -353 0
-34 -354 0
-35 -355 0
-31 -386 0
-32 -387 0
-33 -388 0
-34 -389 0
-35 -390 0
-31 -456 0
-32 -457 0
-33 -458 0
-34 -459 0
-35 -460 0
-36 -111 0
-37 -112 0
-38 -113 0
-39 -114 0
-40 -115 0
-36 -166 0
-37 -167 0
-38 -168 0
-39 -169 0
-40 -170 0
-36 -176 0
-37 -177 0
-38 -178 0
-39 -179 0
-40 -180 0
-36 -286 0
-37 -287 0
-38 -288 0
-39 -289 0
-40 -290 0
-36 -306 0
-37 -307 0
-38 -308 0
-39 -309 0
-40 -310 0
-36 -311 0
-37 -312 0
-38 -313 0
-39 -314 0
-40 -315 0
-36 -406 0
-37 -407 0
-38 -408 0
-39 -409 0
-40 -410 0
-36 -411 0
-37 -412 0
-38 -413 0
-39 -414 0
-40 -415 0
-36 -441 0
-37 -442 0
-38 -443 0
-39 -444 0
-40 -445 0
-41 -131 0
-42 -132 0
-43 -133 0
-44 -134 0
-45 -135 0
-41 -271 0
-42 -272 0
-43 -273 0
-44 -274 0
-45 -275 0
-41 -321 0
-42 -322 0
-43 -323 0
-44 -324 0
-45 -325 0
-41 -341 0
-42 -342 0
-43 -343 0
-44 -344 0
-45 -345 0
-41 -456 0
-42 -457 0
-43 -458 0
-44 -459 0
-45 -460 0
-46 -116 0
-47 -117 0
-48 -118 0
-49 -119 0
-50 -120 0
-46 -146 0
-47 -147 0
-48 -148 0
-49 -149 0
-50 -150 0
-46 -176 0
-47 -177 0
-48 -178 0
-49 -179 0
-50 -180 0
-46 -186 0
-47 -187 0
-48 -188 0
-49 -189 0
-50 -190 0
-46 -206 0
-47 -207 0
-48 -208 0
-49 -209 0
-50 -210 0
-46 -211 0
-47 -212 0
-48 -213 0
-49 -214 0
-50 -215 0
-46 -241 0
-47 -242 0
-48 -243 0
-49 -244 0
-50 -245 0
-46 -286 0
-47 -287 0
-48 -288 0
-49 -289 0
-50 -290 0
-46 -296 0
-47 -297 0
-48 -298 0
-49 -299 0
-50 -300 0
-46 -386 0
-47 -387 0
-48 -388 0
-49 -389 0
-50 -390 0
-46 -421 0
-47 -422 0
-48 -423 0
-49 -424 0
-50 -425 0
-46 -441 0
-47 -442 0
-48 -443 0
-49 -444 0
-50 -445 0
-51 -261 0
-52 -262 0
-53 -263 0
-54 -264 0
-55 -265 0
-51 -306 0
-52 -307 0
-53 -308 0
-54 -309 0
-55 -310 0
-51 -316 0
-52 -317 0
-53 -318 0
-54 -319 0
-55 -320 0
-51 -346 0
-52 -347 0
-53 -348 0
-54 -349 0
-55 -350 0
-51 -376 0
-52 -377 0
-53 -378 0
-54 -379 0
-55 -380 0
-51 -441 0
-52 -442 0
-53 -443 0
-54 -444 0
-55 -445 0
-51 -481 0
-52 -482 0
-53 -483 0
-54 -484 0
-55 -485 0
-56 -141 0
-57 -142 0
-58 -143 0
-59 -144 0
-60 -145 0
-56 -146 0
-57 -147 0
-58 -148 0
-59 -149 0
-60 -150 0
-56 -156 0
-57 -157 0
-58 -158 0
-59 -159 0
-60 -160 0
-56 -176 0
-57 -177 0
-58 -178 0
-59 -179 0
-60 -180 0
-56 -196 0
-57 -197 0
-58 -198 0
-59 -199 0
-60 -200 0
-56 -291 0
-57 -292 0
-58 -293 0
-59 -294 0
-60 -295 0
-56 -321 0
-57 -322 0
-58 -323 0
-59 -324 0
-60 -325 0
-56 -396 0
-57 -397 0
-58 -398 0
-59 -399 0
-60 -400 0
-56 -416 0
-57 -417 0
-58 -418 0
-59 -419 0
-60 -420 0
-56 -426 0
-57 -427 0
-58 -428 0
-59 -429 0
-60 -430 0
-61 -106 0
-62 -107 0
-63 -108 0
-64 -109 0
-65 -110 0
-61 -176 0
-62 -177 0
-63 -178 0
-64 -179 0
-65 -180 0
-61 -231 0
-62 -232 0
-63 -233 0
-64 -234 0
-65 -235 0
-61 -261 0
-62 -262 0
-63 -263 0
-64 -264 0
-65 -265 0
-66 -151 0
-67 -152 0
-68 -153 0
-69 -154 0
-70 -155 0
-66 -201 0
-67 -202 0
-68 -203 0
-69 -204 0
-70 -205 0
-66 -206 0
-67 -207 0
-68 -208 0
-69 -209 0
-70 -210 0
-66 -236 0
-67 -237 0
-68 -238 0
-69 -239 0
-70 -240 0
-66 -266 0
-67 -267 0
-68 -268 0
-69 -269 0
-70 -270 0
-66 -401 0
-67 -402 0
-68 -403 0
-69 -404 0
-70 -405 0
-71 -141 0
-72 -142 0
-73 -143 0
-74 -144 0
-75 -145 0
-71 -151 0
-72 -152 0
-73 -153 0
-74 -154 0
-75 -155 0
-71 -171 0
-72 -172 0
-73 -173 0
-74 -174 0
-75 -175 0
-71 -186 0
-72 -187 0
-73 -188 0
-74 -189 0
-75 -190 0
-71 -301 0
-72 -302 0
-73 -303 0
-74 -304 0
-75 -305 0
-71 -331 0
-72 -332 0
-73 -333 0
-74 -334 0
-75 -335 0
-71 -336 0
-72 -337 0
-73 -338 0
-74 -339 0
-75 -340 0
-71 -356 0
-72 -357 0
-73 -358 0
-74 -359 0
-75 -360 0
-71 -376 0
-72 -377 0
-73 -378 0
-74 -379 0
-75 -380 0
-71 -416 0
-72 -417 0
-73 -418 0
-74 -419 0
-75 -420 0
-71 -496 0
-72 -497 0
-73 -498 0
-74 -499 0
-75 -500 0
-76 -106 0
-77 -107 0
-78 -108 0
-79 -109 0
-80 -110 0
-76 -111 0
-77 -112 0
-78 -113 0
-79 -114 0
-80 -115 0
-76 -266 0
-77 -267 0
-78 -268 0
-79 -269 0
-80 -270 0
-76 -281 0
-77 -282 0
-78 -283 0
-79 -284 0
-80 -285 0
-76 -321 0
-77 -322 0
-78 -323 0
-79 -324 0
-80 -325 0
-76 -356 0
-77 -357 0
-78 -358 0
-79 -359 0
-80 -360 0
-76 -391 0
-77 -392 0
-78 -393 0
-79 -394 0
-80 -395 0
-76 -451 0
-77 -452 0
-78 -453 0
-79 -454 0
-80 -455 0
-76 -466 0
-77 -467 0
-78 -468 0
-79 -469 0
-80 -470 0
-76 -481 0
-77 -482 0
-78 -483 0
-79 -484 0
-80 -485 0
-81 -121 0
-82 -122 0
-83 -123 0
-84 -124 0
-85 -125 0
-81 -126 0
-82 -127 0
-83 -128 0
-84 -129 0
-85 -130 0
-81 -166 0
-82 -167 0
-83 -168 0
-84 -169 0
-85 -170 0
-81 -241 0
-82 -242 0
-83 -243 0
-84 -244 0
-85 -245 0
-81 -276 0
-82 -277 0
-83 -278 0
-84 -279 0
-85 -280 0
-81 -286 0
-82 -287 0
-83 -288 0
-84 -289 0
-85 -290 0
-86 -206 0
-87 -207 0
-88 -208 0
-89 -209 0
-90 -210 0
-86 -381 0
-87 -382 0
-88 -383 0
-89 -384 0
-90 -385 0
-86 -451 0
-87 -452 0
-88 -453 0
-89 -454 0
-90 -455 0
-91 -131 0
-92 -132 0
-93 -133 0
-94 -134 0
-95 -135 0
-91 -191 0
-92 -192 0
-93 -193 0
-94 -194 0
-95 -195 0
-91 -351 0
-92 -352 0
-93 -353 0
-94 -354 0
-95 -355 0
-96 -146 0
-97 -147 0
-98 -148 0
-99 -149 0
-100 -150 0
-96 -221 0
-97 -222 0
-98 -223 0
-99 -224 0
-100 -225 0
-96 -241 0
-97 -242 0
-98 -243 0
-99 -244 0
-100 -245 0
-96 -341 0
-97 -342 0
-98 -343 0
-99 -344 0
-100 -345 0
-96 -381 0
-97 -382 0
-98 -383 0
-99 -384 0
-100 -385 0
-96 -406 0
-97 -407 0
-98 -408 0
-99 -409 0
-100 -410 0
-96 -436 0
-97 -437 0
-98 -438 0
-99 -439 0
-100 -440 0
-101 -351 0
-102 -352 0
-103 -353 0
-104 -354 0
-105 -355 0
-101 -381 0
-102 -382 0
-103 -383 0
-104 -384 0
-105 -385 0
-101 -401 0
-102 -402 0
-103 -403 0
-104 -404 0
-105 -405 0
-101 -406 0
-102 -407 0
-103 -408 0
-104 -409 0
-105 -410 0
-101 -416 0
-102 -417 0
-103 -418 0
-104 -419 0
-105 -420 0
-106 -231 0
-107 -232 0
-108 -233 0
-109 -234 0
-110 -235 0
-106 -241 0
-107 -242 0
-108 -243 0
-109 -244 0
-110 -245 0
-106 -256 0
-107 -257 0
-108 -258 0
-109 -259 0
-110 -260 0
-106 -266 0
-107 -267 0
-108 -268 0
-109 -269 0
-110 -270 0
-106 -311 0
-107 -312 0
-108 -313 0
-109 -314 0
-110 -315 0
-106 -406 0
-107 -407 0
-108 -408 0
-109 -409 0
-110 -410 0
-106 -441 0
-107 -442 0
-108 -443 0
-109 -444 0
-110 -445 0
-106 -456 0
-107 -457 0
-108 -458 0
-109 -459 0
-110 -460 0
-106 -491 0
-107 -492 0
-108 -493 0
-109 -494 0
-110 -495 0
-111 -161 0
-112 -162 0
-113 -163 0
-114 -164 0
-115 -165 0
-111 -211 0
-112 -212 0
-113 -213 0
-114 -214 0
-115 -215 0
-111 -291 0
-112 -292 0
-113 -293 0
-114 -294 0
-115 -295 0
-111 -296 0
-112 -297 0
-113 -298 0
-114 -299 0
-115 -300 0
-111 -471 0
-112 -472 0
-113 -473 0
-114 -474 0
-115 -475 0
-116 -201 0
-117 -202 0
-118 -203 0
-119 -204 0
-120 -205 0
-116 -211 0
-117 -212 0
-118 -213 0
-119 -214 0
-120 -215 0
-116 -256 0
-117 -257 0
-118 -258 0
-119 -259 0
-120 -260 0
-116 -261 0
-117 -262 0
-118 -263 0
-119 -264 0
-120 -265 0
-116 -331 0
-117 -332 0
-118 -333 0
-119 -334 0
-120 -335 0
-116 -381 0
-117 -382 0
-118 -383 0
-119 -384 0
-120 -385 0
-116 -416 0
-117 -417 0
-118 -418 0
-119 -419 0
-120 -420 0
-116 -466 0
-117 -467 0
-118 -468 0
-119 -469 0
-120 -470 0
-121 -151 0
-122 -152 0
-123 -153 0
-124 -154 0
-125 -155 0
-121 -221 0
-122 -222 0
-123 -223 0
-124 -224 0
-125 -225 0
-121 -271 0
-122 -272 0
-123 -273 0
-124 -274 0
-125 -275 0
-121 -316 0
-122 -317 0
-123 -318 0
-124 -319 0
-125 -320 0
-121 -446 0
-122 -447 0
-123 -448 0
-124 -449 0
-125 -450 0
-121 -461 0
-122 -462 0
-123 -463 0
-124 -464 0
-125 -465 0
-126 -176 0
-127 -177 0
-128 -178 0
-129 -179 0
-130 -180 0
-126 -261 0
-127 -262 0
-128 -263 0
-129 -264 0
-130 -265 0
-126 -271 0
-127 -272 0
-128 -273 0
-129 -274 0
-130 -275 0
-126 -386 0
-127 -387 0
-128 -388 0
-129 -389 0
-130 -390 0
-126 -441 0
-127 -442 0
-128 -443 0
-129 -444 0
-130 -445 0
-126 -476 0
-127 -477 0
-128 -478 0
-129 -479 0
-130 -480 0
-131 -166 0
-132 -167 0
-133 -168 0
-134 -169 0
-135 -170 0
-131 -191 0
-132 -192 0
-133 -193 0
-134 -194 0
-135 -195 0
-131 -196 0
-132 -197 0
-133 -198 0
-134 -199 0
-135 -200 0
-131 -251 0
-132 -252 0
-133 -253 0
-134 -254 0
-135 -255 0
-131 -261 0
-132 -262 0
-133 -263 0
-134 -264 0
-135 -265 0
-131 -266 0
-132 -267 0
-133 -268 0
-134 -269 0
-135 -270 0
-131 -271 0
-132 -272 0
-133 -273 0
-134 -274 0
-135 -275 0
-131 -326 0
-132 -327 0
-133 -328 0
-134 -329 0
-135 -330 0
-131 -346 0
-132 -347 0
-133 -348 0
-134 -349 0
-135 -350 0
-131 -376 0
-132 -377 0
-133 -378 0
-134 -379 0
-135 -380 0
-136 -171 0
-137 -172 0
-138 -173 0
-139 -174 0
-140 -175 0
-136 -206 0
-137 -207 0
-138 -208 0
-139 -209 0
-140 -210 0
-136 -361 0
-137 -362 0
-138 -363 0
-139 -364 0
-140 -365 0
-136 -431 0
-137 -432 0
-138 -433 0
-139 -434 0
-140 -435 0
-136 -456 0
-137 -457 0
-138 -458 0
-139 -459 0
-140 -460 0
-136 -496 0
-137 -497 0
-138 -498 0
-139 -499 0
-140 -500 0
-141 -191 0
-142 -192 0
-143 -193 0
-144 -194 0
-145 -195 0
-141 -256 0
-142 -257 0
-143 -258 0
-144 -259 0
-145 -260 0
-141 -271 0
-142 -272 0
-143 -273 0
-144 -274 0
-145 -275 0
-141 -336 0
-142 -337 0
-143 -338 0
-144 -339 0
-145 -340 0
-141 -376 0
-142 -377 0
-143 -378 0
-144 -379 0
-145 -380 0
-141 -446 0
-142 -447 0
-143 -448 0
-144 -449 0
-145 -450 0
-146 -171 0
-147 -172 0
-148 -173 0
-149 -174 0
-150 -175 0
-146 -311 0
-147 -312 0
-148 -313 0
-149 -314 0
-150 -315 0
-146 -331 0
-147 -332 0
-148 -333 0
-149 -334 0
-150 -335 0
-146 -411 0
-147 -412 0
-148 -413 0
-149 -414 0
-150 -415 0
-146 -461 0
-147 -462 0
-148 -463 0
-149 -464 0
-150 -465 0
-146 -466 0
-147 -467 0
-148 -468 0
-149 -469 0
-150 -470 0
-151 -221 0
-152 -222 0
-153 -223 0
-154 -224 0
-155 -225 0
-151 -281 0
-152 -282 0
-153 -283 0
-154 -284 0
-155 -285 0
-151 -341 0
-152 -342 0
-153 -343 0
-154 -344 0
-155 -345 0
-151 -376 0
-152 -377 0
-153 -378 0
-154 -379 0
-155 -380 0
-151 -401 0
-152 -402 0
-153 -403 0
-154 -404 0
-155 -405 0
-151 -416 0
-152 -417 0
-153 -418 0
-154 -419 0
-155 -420 0
-151 -451 0
-152 -452 0
-153 -453 0
-154 -454 0
-155 -455 0
-156 -216 0
-157 -217 0
-158 -218 0
-159 -219 0
-160 -220 0
-156 -251 0
-157 -252 0
-158 -253 0
-159 -254 0
-160 -255 0
-156 -291 0
-157 -292 0
-158 -293 0
-159 -294 0
-160 -295 0
-156 -311 0
-157 -312 0
-158 -313 0
-159 -314 0
-160 -315 0
-156 -336 0
-157 -337 0
-158 -338 0
-159 -339 0
-160 -340 0
-156 -366 0
-157 -367 0
-158 -368 0
-159 -369 0
-160 -370 0
-156 -396 0
-157 -397 0
-158 -398 0
-159 -399 0
-160 -400 0
-156 -471 0
-157 -472 0
-158 -473 0
-159 -474 0
-160 -475 0
-156 -491 0
-157 -492 0
-158 -493 0
-159 -494 0
-160 -495 0
-161 -191 0
-162 -192 0
-163 -193 0
-164 -194 0
-165 -195 0
-161 -196 0
-162 -197 0
-163 -198 0
-164 -199 0
-165 -200 0
-161 -221 0
-162 -222 0
-163 -223 0
-164 -224 0
-165 -225 0
-161 -241 0
-162 -242 0
-163 -243 0
-164 -244 0
-165 -245 0
-161 -276 0
-162 -277 0
-163 -278 0
-164 -279 0
-165 -280 0
-161 -486 0
-162 -487 0
-163 -488 0
-164 -489 0
-165 -490 0
-166 -196 0
-167 -197 0
-168 -198 0
-169 -199 0
-170 -200 0
-166 -211 0
-167 -212 0
-168 -213 0
-169 -214 0
-170 -215 0
-166 -306 0
-167 -307 0
-168 -308 0
-169 -309 0
-170 -310 0
-166 -376 0
-167 -377 0
-168 -378 0
-169 -379 0
-170 -380 0
-171 -311 0
-172 -312 0
-173 -313 0
-174 -314 0
-175 -315 0
-171 -316 0
-172 -317 0
-173 -318 0
-174 -319 0
-175 -320 0
-171 -341 0
-172 -342 0
-173 -343 0
-174 -344 0
-175 -345 0
-171 -351 0
-172 -352 0
-173 -353 0
-174 -354 0
-175 -355 0
-171 -366 0
-172 -367 0
-173 -368 0
-174 -369 0
-175 -370 0
-171 -416 0
-172 -417 0
-173 -418 0
-174 -419 0
-175 -420 0
-171 -461 0
-172 -462 0
-173 -463 0
-174 -464 0
-175 -465 0
-176 -251 0
-177 -252 0
-178 -253 0
-179 -254 0
-180 -255 0
-176 -386 0
-177 -387 0
-178 -388 0
-179 -389 0
-180 -390 0
-176 -411 0
-177 -412 0
-178 -413 0
-179 -414 0
-180 -415 0
-176 -421 0
-177 -422 0
-178 -423 0
-179 -424 0
-180 -425 0
-176 -491 0
-177 -492 0
-178 -493 0
-179 -494 0
-180 -495 0
-181 -256 0
-182 -257 0
-183 -258 0
-184 -259 0
-185 -260 0
-181 -361 0
-182 -362 0
-183 -363 0
-184 -364 0
-185 -365 0
-186 -246 0
-187 -247 0
-188 -248 0
-189 -249 0
-190 -250 0
-186 -261 0
-187 -262 0
-188 -263 0
-189 -264 0
-190 -265 0
-186 -346 0
-187 -347 0
-188 -348 0
-189 -349 0
-190 -350 0
-186 -351 0
-187 -352 0
-188 -353 0
-189 -354 0
-190 -355 0
-191 -261 0
-192 -262 0
-193 -263 0
-194 -264 0
-195 -265 0
-191 -266 0
-192 -267 0
-193 -268 0
-194 -269 0
-195 -270 0
-191 -271 0
-192 -272 0
-193 -273 0
-194 -274 0
-195 -275 0
-191 -301 0
-192 -302 0
-193 -303 0
-194 -304 0
-195 -305 0
-191 -401 0
-192 -402 0
-193 -403 0
-194 -404 0
-195 -405 0
-196 -246 0
-197 -247 0
-198 -248 0
-199 -249 0
-200 -250 0
-196 -321 0
-197 -322 0
-198 -323 0
-199 -324 0
-200 -325 0
-196 -466 0
-197 -467 0
-198 -468 0
-199 -469 0
-200 -470 0
-201 -251 0
-202 -252 0
-203 -253 0
-204 -254 0
-205 -255 0
-201 -301 0
-202 -302 0
-203 -303 0
-204 -304 0
-205 -305 0
-201 -316 0
-202 -317 0
-203 -318 0
-204 -319 0
-205 -320 0
-201 -326 0
-202 -327 0
-203 -328 0
-204 -329 0
-205 -330 0
-201 -371 0
-202 -372 0
-203 -373 0
-204 -374 0
-205 -375 0
-201 -416 0
-202 -417 0
-203 -418 0
-204 -419 0
-205 -420 0
-201 -446 0
-202 -447 0
-203 -448 0
-204 -449 0
-205 -450 0
-201 -451 0
-202 -452 0
-203 -453 0
-204 -454 0
-205 -455 0
-206 -376 0
-207 -377 0
-208 -378 0
-209 -379 0
-210 -380 0
-206 -431 0
-207 -432 0
-208 -433 0
-209 -434 0
-210 -435 0
-206 -446 0
-207 -447 0
-208 -448 0
-209 -449 0
-210 -450 0
-206 -461 0
-207 -462 0
-208 -463 0
-209 -464 0
-210 -465 0
-211 -236 0
-212 -237 0
-213 -238 0
-214 -239 0
-215 -240 0
-211 -451 0
-212 -452 0
-213 -453 0
-214 -454 0
-215 -455 0
-216 -351 0
-217 -352 0
-218 -353 0
-219 -354 0
-220 -355 0
-221 -261 0
-222 -262 0
-223 -263 0
-224 -264 0
-225 -265 0
-221 -386 0
-222 -387 0
-223 -388 0
-224 -389 0
-225 -390 0
-221 -451 0
-222 -452 0
-223 -453 0
-224 -454 0
-225 -455 0
-226 -321 0
-227 -322 0
-228 -323 0
-229 -324 0
-230 -325 0
-231 -291 0
-232 -292 0
-233 -293 0
-234 -294 0
-235 -295 0
-231 -301 0
-232 -302 0
-233 -303 0
-234 -304 0
-235 -305 0
-231 -316 0
-232 -317 0
-233 -318 0
-234 -319 0
-235 -320 0
-231 -336 0
-232 -337 0
-233 -338 0
-234 -339 0
-235 -340 0
-231 -431 0
-232 -432 0
-233 -433 0
-234 -434 0
-235 -435 0
-231 -476 0
-232 -477 0
-233 -478 0
-234 -479 0
-235 -480 0
-236 -261 0
-237 -262 0
-238 -263 0
-239 -264 0
-240 -265 0
-236 -346 0
-237 -347 0
-238 -348 0
-239 -349 0
-240 -350 0
-236 -371 0
-237 -372 0
-238 -373 0
-239 -374 0
-240 -375 0
-236 -421 0
-237 -422 0
-238 -423 0
-239 -424 0
-240 -425 0
-236 -461 0
-237 -462 0
-238 -463 0
-239 -464 0
-240 -465 0
-236 -486 0
-237 -487 0
-238 -488 0
-239 -489 0
-240 -490 0
-236 -491 0
-237 -492 0
-238 -493 0
-239 -494 0
-240 -495 0
-241 -266 0
-242 -267 0
-243 -268 0
-244 -269 0
-245 -270 0
-241 -286 0
-242 -287 0
-243 -288 0
-244 -289 0
-245 -290 0
-241 -386 0
-242 -387 0
-243 -388 0
-244 -389 0
-245 -390 0
-246 -291 0
-247 -292 0
-248 -293 0
-249 -294 0
-250 -295 0
-246 -321 0
-247 -322 0
-248 -323 0
-249 -324 0
-250 -325 0
-246 -371 0
-247 -372 0
-248 -373 0
-249 -374 0
-250 -375 0
-246 -396 0
-247 -397 0
-248 -398 0
-249 -399 0
-250 -400 0
-246 -451 0
-247 -452 0
-248 -453 0
-249 -454 0
-250 -455 0
-246 -491 0
-247 -492 0
-248 -493 0
-249 -494 0
-250 -495 0
-251 -316 0
-252 -317 0
-253 -318 0
-254 -319 0
-255 -320 0
-251 -351 0
-252 -352 0
-253 -353 0
-254 -354 0
-255 -355 0
-251 -356 0
-252 -357 0
-253 -358 0
-254 -359 0
-255 -360 0
-251 -376 0
-252 -377 0
-253 -378 0
-254 -379 0
-255 -380 0
-256 -311 0
-257 -312 0
-258 -313 0
-259 -314 0
-260 -315 0
-261 -341 0
-262 -342 0
-263 -343 0
-264 -344 0
-265 -345 0
-261 -356 0
-262 -357 0
-263 -358 0
-264 -359 0
-265 -360 0
-261 -441 0
-262 -442 0
-263 -443 0
-264 -444 0
-265 -445 0
-271 -306 0
-272 -307 0
-273 -308 0
-274 -309 0
-275 -310 0
-271 -351 0
-272 -352 0
-273 -353 0
-274 -354 0
-275 -355 0
-271 -411 0
-272 -412 0
-273 -413 0
-274 -414 0
-275 -415 0
-271 -496 0
-272 -497 0
-273 -498 0
-274 -499 0
-275 -500 0
-276 -326 0
-277 -327 0
-278 -328 0
-279 -329 0
-280 -330 0
-281 -376 0
-282 -377 0
-283 -378 0
-284 -379 0
-285 -380 0
-281 -386 0
-282 -387 0
-283 -388 0
-284 -389 0
-285 -390 0
-281 -406 0
-282 -407 0
-283 -408 0
-284 -409 0
-285 -410 0
-281 -421 0
-282 -422 0
-283 -423 0
-284 -424 0
-285 -425 0
-281 -441 0
-282 -442 0
-283 -443 0
-284 -444 0
-285 -445 0
-286 -356 0
-287 -357 0
-288 -358 0
-289 -359 0
-290 -360 0
-286 -371 0
-287 -372 0
-288 -373 0
-289 -374 0
-290 -375 0
-286 -376 0
-287 -377 0
-288 -378 0
-289 -379 0
-290 -380 0
-286 -431 0
-287 -432 0
-288 -433 0
-289 -434 0
-290 -435 0
-286 -451 0
-287 -452 0
-288 -453 0
-289 -454 0
-290 -455 0
-291 -336 0
-292 -337 0
-293 -338 0
-294 -339 0
-295 -340 0
-291 -366 0
-292 -367 0
-293 -368 0
-294 -369 0
-295 -370 0
-291 -481 0
-292 -482 0
-293 -483 0
-294 -484 0
-295 -485 0
-296 -331 0
-297 -332 0
-298 -333 0
-299 -334 0
-300 -335 0
-296 -471 0
-297 -472 0
-298 -473 0
-299 -474 0
-300 -475 0
-296 -476 0
-297 -477 0
-298 -478 0
-299 -479 0
-300 -480 0
-306 -436 0
-307 -437 0
-308 -438 0
-309 -439 0
-310 -440 0
-306 -486 0
-307 -487 0
-308 -488 0
-309 -489 0
-310 -490 0
-311 -356 0
-312 -357 0
-313 -358 0
-314 -359 0
-315 -360 0
-311 -376 0
-312 -377 0
-313 -378 0
-314 -379 0
-315 -380 0
-311 -426 0
-312 -427 0
-313 -428 0
-314 -429 0
-315 -430 0
-311 -461 0
-312 -462 0
-313 -463 0
-314 -464 0
-315 -465 0
-316 -421 0
-317 -422 0
-318 -423 0
-319 -424 0
-320 -425 0
-321 -416 0
-322 -417 0
-323 -418 0
-324 -419 0
-325 -420 0
-321 -426 0
-322 -427 0
-323 -428 0
-324 -429 0
-325 -430 0
-321 -436 0
-322 -437 0
-323 -438 0
-324 -439 0
-325 -440 0
-326 -391 0
-327 -392 0
-328 -393 0
-329 -394 0
-330 -395 0
-326 -451 0
-327 -452 0
-328 -453 0
-329 -454 0
-330 -455 0
-331 -426 0
-332 -427 0
-333 -428 0
-334 -429 0
-335 -430 0
-336 -391 0
-337 -392 0
-338 -393 0
-339 -394 0
-340 -395 0
-336 -436 0
-337 -437 0
-338 -438 0
-339 -439 0
-340 -440 0
-336 -441 0
-337 -442 0
-338 -443 0
-339 -444 0
-340 -445 0
-336 -491 0
-337 -492 0
-338 -493 0
-339 -494 0
-340 -495 0
-341 -381 0
-342 -382 0
-343 -383 0
-344 -384 0
-345 -385 0
-341 -436 0
-342 -437 0
-343 -438 0
-344 -439 0
-345 -440 0
-346 -381 0
-347 -382 0
-348 -383 0
-349 -384 0
-350 -385 0
-351 -391 0
-352 -392 0
-353 -393 0
-354 -394 0
-355 -395 0
-351 -426 0
-352 -427 0
-353 -428 0
-354 -429 0
-355 -430 0
-351 -431 0
-352 -432 0
-353 -433 0
-354 -434 0
-355 -435 0
-356 -436 0
-357 -437 0
-358 -438 0
-359 -439 0
-360 -440 0
-356 -491 0
-357 -492 0
-358 -493 0
-359 -494 0
-360 -495 0
-356 -496 0
-357 -497 0
-358 -498 0
-359 -499 0
-360 -500 0
-361 -426 0
-362 -427 0
-363 -428 0
-364 -429 0
-365 -430 0
-361 -476 0
-362 -477 0
-363 -478 0
-364 -479 0
-365 -480 0
-366 -481 0
-367 -482 0
-368 -483 0
-369 -484 0
-370 -485 0
-366 -496 0
-367 -497 0
-368 -498 0
-369 -499 0
-370 -500 0
-371 -441 0
-372 -442 0
-373 -443 0
-374 -444 0
-375 -445 0
-371 -451 0
-372 -452 0
-373 -453 0
-374 -454 0
-375 -455 0
-371 -476 0
-372 -477 0
-373 -478 0
-374 -479 0
-375 -480 0
-376 -401 0
-377 -402 0
-378 -403 0
-379 -404 0
-380 -405 0
-381 -456 0
-382 -457 0
-383 -458 0
-384 -459 0
-385 -460 0
-381 -476 0
-382 -477 0
-383 -478 0
-384 -479 0
-385 -480 0
-386 -436 0
-387 -437 0
-388 -438 0
-389 -439 0
-390 -440 0
-386 -441 0
-387 -442 0
-388 -443 0
-389 -444 0
-390 -445 0
-386 -451 0
-387 -452 0
-388 -453 0
-389 -454 0
-390 -455 0
-396 -471 0
-397 -472 0
-398 -473 0
-399 -474 0
-400 -475 0
-411 -461 0
-412 -462 0
-413 -463 0
-414 -464 0
-415 -465 0
-411 -476 0
-412 -477 0
-413 -478 0
-414 -479 0
-415 -480 0
-416 -441 0
-417 -442 0
-418 -443 0
-419 -444 0
-420 -445 0
-416 -461 0
-417 -462 0
-418 -463 0
-419 -464 0
-420 -465 0
-421 -456 0
-422 -457 0
-423 -458 0
-424 -459 0
-425 -460 0
-421 -496 0
-422 -497 0
-423 -498 0
-424 -499 0
-425 -500 0
-426 -496 0
-427 -497 0
-428 -498 0
-429 -499 0
-430 -500 0
-431 -476 0
-432 -477 0
-433 -478 0
-434 -479 0
-435 -480 0
-441 -491 0
-442 -492 0
-443 -493 0
-444 -494 0
-445 -495 0
